unknown
(model
; cardinality of BoundSet is 1
(declare-sort BoundSet 0)
; rep: @uc_BoundSet_0
; cardinality of UnboundSet is 1
(declare-sort UnboundSet 0)
(declare-fun groundTerm_2 () UnboundSet)
(define-fun IsExperiencedDirectly ((BOUND_VARIABLE_378 BoundSet)) Bool false)
(define-fun IsInRegion ((BOUND_VARIABLE_378 BoundSet)) Bool false)
(define-fun IsInGlobe ((BOUND_VARIABLE_378 BoundSet)) Bool false)
)
sat
(model
; cardinality of BoundSet is 1
(declare-sort BoundSet 0)
; rep: @uc_BoundSet_0
; cardinality of UnboundSet is 1
(declare-sort UnboundSet 0)
(declare-fun groundTerm_4 () UnboundSet)
(define-fun IsExperiencedDirectly ((BOUND_VARIABLE_399 BoundSet)) Bool false)
(define-fun IsInRegion ((BOUND_VARIABLE_399 BoundSet)) Bool false)
(define-fun IsInGlobe ((BOUND_VARIABLE_399 BoundSet)) Bool false)
)
